<number of tasks>
20

<cycle time>
1000

<order strength>
0,8


<task times>
1 279
2 346
3 149
4 117
5 468
6 152
7 81
8 489
9 341
10 509
11 528
12 171
13 144
14 501
15 453
16 200
17 57
18 198
19 219
20 209

<precedence relations>
1,4
1,6
2,4
2,5
3,4
3,6
4,7
5,6
6,7
6,8
7,9
7,15
8,9
8,10
9,14
9,18
10,11
10,12
11,13
11,14
11,15
12,13
12,14
13,16
13,17
13,18
14,16
14,17
15,18
16,19
17,20
18,19

<end>
